(declare-sort $$unsorted 0)
(declare-fun tptp.op ($$unsorted $$unsorted) $$unsorted)
(assert (forall ((X0 $$unsorted) (X1 $$unsorted) (X2 $$unsorted)) (let ((_let_1 (tptp.op X0 X1))) (= X0 (tptp.op X1 (tptp.op _let_1 _let_1))))))
(assert (not (forall ((X0 $$unsorted) (X1 $$unsorted) (X2 $$unsorted)) (= (tptp.op (tptp.op X0 X1) X0) (tptp.op (tptp.op X2 X1) X2)))))
(set-info :filename Equation880_implies_Equation4647)
(check-sat-assuming ( true ))
